70 170903
24 22 41 28 13 67 39 27 33 69 4 38 56 68 54 45 30 53 18 2 60 59 58 19 16 14 50 42 5 8 35 7 48 3 12 51 70 55 64 17 6 65 62 1 29 11 9 40 23 44 15 31 37 66 34 25 10 43 57 61 21 46 32 20 52 47 26 63 49 36 
